12 40 9 10
5 18 3 5 3 10 18 17 3 13 16 17 17 1 14 8 15 19 10 20 20 8 16 10 6 2 2 17 15 17 20 10 18 20 3 2 15 2 3 10 
3.82 0.57 5.86 14.34 6.97 6.65 9.3 14.49 9.01 6.44 3.94 15.01 12.04 7.12 13.17 13.08 11.3 15.17 5.34 11.47 11.26 7.49 6.31 15.51 15.94 2.46 14.23 12.4 11.17 14.48 11.87 5.15 2.89 11.67 7.3 8.43 11.84 12.08 9.65 4.48 
15.89 10.01 2.55 2.08 5.27 0.33 2.36 1.26 7.62 1.33 0.33 14.67 9.04 15.69 5.99 9.76 15.68 6.18 7.58 13.23 9.55 1.8 15.17 15.35 12.18 3.91 3.64 0.07 4.45 1.65 2.32 9.88 8.34 13.76 13.16 3.15 15.18 10.39 1.46 12.88 
5.69 0.89 13.68 8.26 15.45 13.59 4.92 6.43 10.28 15.94 6.58 5.22 1.53 14.78 0.25 13.95 6.04 3.58 2.42 4.79 10.35 13.05 9.62 0.09 5.7 13.06 13.75 15.84 11.23 15.09 5.64 6.07 13.58 13.69 11.71 12.04 10.03 15.13 9.73 10.22 
7.42 15.78 10.44 13.35 11.59 1 15.9 2.44 15.39 2.67 8.06 9.44 3.32 15.99 7.35 12.14 12.17 9.14 13.09 2.19 6.92 11.29 5.21 12.68 15 13.18 6.18 4 14.83 7.93 9.48 5.8 9.28 10.44 7.32 0.73 4.67 6.72 9.85 8.69 
9.28 0.36 12.95 5.85 1.62 0.28 10.88 11.84 2.34 11.7 7.53 12.14 0.25 13.43 1.71 7 8.04 9.08 14.43 0.12 5.6 3.84 15.15 15.29 15.62 4.32 13.28 1.79 14.26 9.7 8.9 10.92 9.92 10.11 14.49 13.09 11.27 7.71 12.9 10.43 
7.3 5.22 0.1 5.14 3.2 11.05 2.35 4.69 9.65 11.19 10.02 4.82 0.57 8.66 9.76 10.89 4.01 14.11 5.86 14.77 5.85 2.22 7.24 6.86 12.22 8.94 11.14 13.49 9.23 9.14 1.29 7.38 6.16 11.43 15.47 0.31 3.56 7.72 9.45 7.93 
9.62 12.06 1.9 10.25 1.69 14.71 1.97 0.85 6.08 4.51 3.94 3.33 1.16 13.94 10.47 12.57 6.57 13.69 11.67 13.83 3.86 15.7 0.69 4.08 4.72 2.98 6.22 14.03 8.93 10.68 15.33 2.66 0.13 12.43 7.13 13.33 9.62 2.99 13.37 12.49 
0.23 11.04 5.16 8.08 12.61 10.27 8.18 7.57 0.97 5.73 1.23 3.93 10.56 8.85 7.25 12.09 12.6 12.38 14.16 12.59 15.81 11.37 9.44 1.67 8.82 7.86 14.58 5.44 7.94 2.94 15.65 5.85 3.57 14.45 5.8 13.46 11.01 14.08 1.54 4.85 
3.21 2.33 15.28 2.64 0.71 13.5 9.46 1.91 13.98 13.48 10.21 15.51 10.89 2.56 8.89 1.77 10.27 12.37 14.1 9.24 4.04 12.22 14.67 1.45 7.22 3.36 7.25 13.78 13.4 12.84 10.27 5.25 12.02 13.53 14.05 12.19 3.17 8.27 15.75 12.39 
8 8 8 8 8 8 8 8 8 8 8 8 8 8 8 8 8 8 8 8 8 8 8 8 8 8 8 8 8 8 8 8 8 8 8 8 8 8 8 8 
6.56 6.51 7.92 2.17 5.84 13.06 1.9 15.81 0.04 6.82 2.67 6.26 12.47 4.15 5.52 2.49 13.48 1.66 5.46 10.64 0.08 12.78 3.67 4.66 6.81 6.48 15.38 2.04 11.41 6.84 15.93 5.33 1.06 7.04 5.22 10.71 5.81 8.53 2.93 8.9 
8.92 4.88 0.9 4.61 12.92 6.62 11.67 11.17 11.99 14.98 6.31 6.58 4.98 2.2 1.1 1.01 6.77 8.72 0.61 3.85 10.12 9.6 7.4 2.96 10.96 15.03 0.15 4.82 5.17 10.98 3.93 7.47 9.34 15.27 14.74 14.71 5.84 15.6 8.61 15.84 
1 1 1 1 1 1 1 1 1 1 1 1 1 1 1 1 1 1 1 1 1 1 1 1 1 1 1 1 1 1 1 1 1 1 1 1 1 1 1 1 
1 1 1 1 1 1 1 1 1 1 1 1 1 1 1 1 1 1 1 1 1 1 1 1 1 1 1 1 1 1 1 1 1 1 1 1 1 1 1 1 
1 1 1 1 1 1 1 1 1 1 1 1 1 1 1 1 1 1 1 1 1 1 1 1 1 1 1 1 1 1 1 1 1 1 1 1 1 1 1 1 
1 1 1 1 1 1 1 1 1 1 1 1 1 1 1 1 1 1 1 1 1 1 1 1 1 1 1 1 1 1 1 1 1 1 1 1 1 1 1 1 
1 1 1 1 1 1 1 1 1 1 1 1 1 1 1 1 1 1 1 1 1 1 1 1 1 1 1 1 1 1 1 1 1 1 1 1 1 1 1 1 
1 1 1 1 1 1 1 1 1 1 1 1 1 1 1 1 1 1 1 1 1 1 1 1 1 1 1 1 1 1 1 1 1 1 1 1 1 1 1 1 
1 1 1 1 1 1 1 1 1 1 1 1 1 1 1 1 1 1 1 1 1 1 1 1 1 1 1 1 1 1 1 1 1 1 1 1 1 1 1 1 
1 1 1 1 1 1 1 1 1 1 1 1 1 1 1 1 1 1 1 1 1 1 1 1 1 1 1 1 1 1 1 1 1 1 1 1 1 1 1 1 
1 1 1 1 1 1 1 1 1 1 1 1 1 1 1 1 1 1 1 1 1 1 1 1 1 1 1 1 1 1 1 1 1 1 1 1 1 1 1 1 
1 1 1 1 1 1 1 1 1 1 1 1 1 1 1 1 1 1 1 1 1 1 1 1 1 1 1 1 1 1 1 1 1 1 1 1 1 1 1 1 
1 1 1 1 1 1 1 1 1 1 1 1 1 1 1 1 1 1 1 1 1 1 1 1 1 1 1 1 1 1 1 1 1 1 1 1 1 1 1 1 
1 1 1 1 1 1 1 1 1 1 1 1 1 1 1 1 1 1 1 1 1 1 1 1 1 1 1 1 1 1 1 1 1 1 1 1 1 1 1 1 
0.01 0.01 0.01 0.01 0.01 0.01 0.01 0.01 0.01 0.01 0.01 0.01 0.01 0.01 0.01 0.01 0.01 0.01 0.01 0.01 0.01 0.01 0.01 0.01 0.01 0.01 0.01 0.01 0.01 0.01 0.01 0.01 0.01 0.01 0.01 0.01 0.01 0.01 0.01 0.01 
0.02 0.02 0.02 0.02 0.02 0.02 0.02 0.02 0.02 0.02 0.02 0.02 0.02 0.02 0.02 0.02 0.02 0.02 0.02 0.02 0.02 0.02 0.02 0.02 0.02 0.02 0.02 0.02 0.02 0.02 0.02 0.02 0.02 0.02 0.02 0.02 0.02 0.02 0.02 0.02 
0.03 0.03 0.03 0.03 0.03 0.03 0.03 0.03 0.03 0.03 0.03 0.03 0.03 0.03 0.03 0.03 0.03 0.03 0.03 0.03 0.03 0.03 0.03 0.03 0.03 0.03 0.03 0.03 0.03 0.03 0.03 0.03 0.03 0.03 0.03 0.03 0.03 0.03 0.03 0.03 
0.04 0.04 0.04 0.04 0.04 0.04 0.04 0.04 0.04 0.04 0.04 0.04 0.04 0.04 0.04 0.04 0.04 0.04 0.04 0.04 0.04 0.04 0.04 0.04 0.04 0.04 0.04 0.04 0.04 0.04 0.04 0.04 0.04 0.04 0.04 0.04 0.04 0.04 0.04 0.04 
0.05 0.05 0.05 0.05 0.05 0.05 0.05 0.05 0.05 0.05 0.05 0.05 0.05 0.05 0.05 0.05 0.05 0.05 0.05 0.05 0.05 0.05 0.05 0.05 0.05 0.05 0.05 0.05 0.05 0.05 0.05 0.05 0.05 0.05 0.05 0.05 0.05 0.05 0.05 0.05 
0.06 0.06 0.06 0.06 0.06 0.06 0.06 0.06 0.06 0.06 0.06 0.06 0.06 0.06 0.06 0.06 0.06 0.06 0.06 0.06 0.06 0.06 0.06 0.06 0.06 0.06 0.06 0.06 0.06 0.06 0.06 0.06 0.06 0.06 0.06 0.06 0.06 0.06 0.06 0.06 
0.07 0.07 0.07 0.07 0.07 0.07 0.07 0.07 0.07 0.07 0.07 0.07 0.07 0.07 0.07 0.07 0.07 0.07 0.07 0.07 0.07 0.07 0.07 0.07 0.07 0.07 0.07 0.07 0.07 0.07 0.07 0.07 0.07 0.07 0.07 0.07 0.07 0.07 0.07 0.07 
0.08 0.08 0.08 0.08 0.08 0.08 0.08 0.08 0.08 0.08 0.08 0.08 0.08 0.08 0.08 0.08 0.08 0.08 0.08 0.08 0.08 0.08 0.08 0.08 0.08 0.08 0.08 0.08 0.08 0.08 0.08 0.08 0.08 0.08 0.08 0.08 0.08 0.08 0.08 0.08 
0.09 0.09 0.09 0.09 0.09 0.09 0.09 0.09 0.09 0.09 0.09 0.09 0.09 0.09 0.09 0.09 0.09 0.09 0.09 0.09 0.09 0.09 0.09 0.09 0.09 0.09 0.09 0.09 0.09 0.09 0.09 0.09 0.09 0.09 0.09 0.09 0.09 0.09 0.09 0.09 
0.1 0.1 0.1 0.1 0.1 0.1 0.1 0.1 0.1 0.1 0.1 0.1 0.1 0.1 0.1 0.1 0.1 0.1 0.1 0.1 0.1 0.1 0.1 0.1 0.1 0.1 0.1 0.1 0.1 0.1 0.1 0.1 0.1 0.1 0.1 0.1 0.1 0.1 0.1 0.1 
0.5 0.5 0.5 0.5 0.5 0.5 0.5 0.5 0.5 0.5 0.5 0.5 0.5 0.5 0.5 0.5 0.5 0.5 0.5 0.5 0.5 0.5 0.5 0.5 0.5 0.5 0.5 0.5 0.5 0.5 0.5 0.5 0.5 0.5 0.5 0.5 0.5 0.5 0.5 0.5 
1 1 1 1 1 1 1 1 1 1 1 1 1 1 1 1 1 1 1 1 1 1 1 1 1 1 1 1 1 1 1 1 1 1 1 1 1 1 1 1 
